
(declare-fun |j0_t0_begin | () Real)
(declare-fun |j0_t1_begin | () Real)
(declare-fun |j0_t2_begin | () Real)
(declare-fun |j0_t3_begin | () Real)
(declare-fun |j0_t4_begin | () Real)
(declare-fun |j0_t5_begin | () Real)
(declare-fun c_t_0 () Real)
(declare-fun |j1_t0_begin | () Real)
(declare-fun |j1_t1_begin | () Real)
(declare-fun |j1_t2_begin | () Real)
(declare-fun |j1_t3_begin | () Real)
(declare-fun |j1_t4_begin | () Real)
(declare-fun |j1_t5_begin | () Real)
(declare-fun c_t_1 () Real)
(declare-fun |j2_t0_begin | () Real)
(declare-fun |j2_t1_begin | () Real)
(declare-fun |j2_t2_begin | () Real)
(declare-fun |j2_t3_begin | () Real)
(declare-fun |j2_t4_begin | () Real)
(declare-fun |j2_t5_begin | () Real)
(declare-fun c_t_2 () Real)
(declare-fun |j3_t0_begin | () Real)
(declare-fun |j3_t1_begin | () Real)
(declare-fun |j3_t2_begin | () Real)
(declare-fun |j3_t3_begin | () Real)
(declare-fun |j3_t4_begin | () Real)
(declare-fun |j3_t5_begin | () Real)
(declare-fun c_t_3 () Real)
(declare-fun |j4_t0_begin | () Real)
(declare-fun |j4_t1_begin | () Real)
(declare-fun |j4_t2_begin | () Real)
(declare-fun |j4_t3_begin | () Real)
(declare-fun |j4_t4_begin | () Real)
(declare-fun |j4_t5_begin | () Real)
(declare-fun c_t_4 () Real)
(declare-fun |j5_t0_begin | () Real)
(declare-fun |j5_t1_begin | () Real)
(declare-fun |j5_t2_begin | () Real)
(declare-fun |j5_t3_begin | () Real)
(declare-fun |j5_t4_begin | () Real)
(declare-fun |j5_t5_begin | () Real)
(declare-fun c_t_5 () Real)
(declare-fun objectie_function () Real)
(assert (>= |j0_t0_begin | 0.0))
(assert (>= |j0_t1_begin | 0.0))
(assert (>= |j0_t1_begin | (+ |j0_t0_begin | 1.0)))
(assert (>= |j0_t2_begin | 0.0))
(assert (>= |j0_t2_begin | (+ |j0_t1_begin | 3.0)))
(assert (>= |j0_t3_begin | 0.0))
(assert (>= |j0_t3_begin | (+ |j0_t2_begin | 6.0)))
(assert (>= |j0_t4_begin | 0.0))
(assert (>= |j0_t4_begin | (+ |j0_t3_begin | 7.0)))
(assert (>= |j0_t5_begin | 0.0))
(assert (<= (+ |j0_t5_begin | 6.0) c_t_0))
(assert (>= |j0_t5_begin | (+ |j0_t4_begin | 3.0)))
(assert (>= |j1_t0_begin | 0.0))
(assert (>= |j1_t1_begin | 0.0))
(assert (>= |j1_t1_begin | (+ |j1_t0_begin | 8.0)))
(assert (>= |j1_t2_begin | 0.0))
(assert (>= |j1_t2_begin | (+ |j1_t1_begin | 5.0)))
(assert (>= |j1_t3_begin | 0.0))
(assert (>= |j1_t3_begin | (+ |j1_t2_begin | 10.0)))
(assert (>= |j1_t4_begin | 0.0))
(assert (>= |j1_t4_begin | (+ |j1_t3_begin | 10.0)))
(assert (>= |j1_t5_begin | 0.0))
(assert (<= (+ |j1_t5_begin | 4.0) c_t_1))
(assert (>= |j1_t5_begin | (+ |j1_t4_begin | 10.0)))
(assert (>= |j2_t0_begin | 0.0))
(assert (>= |j2_t1_begin | 0.0))
(assert (>= |j2_t1_begin | (+ |j2_t0_begin | 5.0)))
(assert (>= |j2_t2_begin | 0.0))
(assert (>= |j2_t2_begin | (+ |j2_t1_begin | 4.0)))
(assert (>= |j2_t3_begin | 0.0))
(assert (>= |j2_t3_begin | (+ |j2_t2_begin | 8.0)))
(assert (>= |j2_t4_begin | 0.0))
(assert (>= |j2_t4_begin | (+ |j2_t3_begin | 9.0)))
(assert (>= |j2_t5_begin | 0.0))
(assert (<= (+ |j2_t5_begin | 7.0) c_t_2))
(assert (>= |j2_t5_begin | (+ |j2_t4_begin | 1.0)))
(assert (>= |j3_t0_begin | 0.0))
(assert (>= |j3_t1_begin | 0.0))
(assert (>= |j3_t1_begin | (+ |j3_t0_begin | 5.0)))
(assert (>= |j3_t2_begin | 0.0))
(assert (>= |j3_t2_begin | (+ |j3_t1_begin | 5.0)))
(assert (>= |j3_t3_begin | 0.0))
(assert (>= |j3_t3_begin | (+ |j3_t2_begin | 5.0)))
(assert (>= |j3_t4_begin | 0.0))
(assert (>= |j3_t4_begin | (+ |j3_t3_begin | 3.0)))
(assert (>= |j3_t5_begin | 0.0))
(assert (<= (+ |j3_t5_begin | 9.0) c_t_3))
(assert (>= |j3_t5_begin | (+ |j3_t4_begin | 8.0)))
(assert (>= |j4_t0_begin | 0.0))
(assert (>= |j4_t1_begin | 0.0))
(assert (>= |j4_t1_begin | (+ |j4_t0_begin | 9.0)))
(assert (>= |j4_t2_begin | 0.0))
(assert (>= |j4_t2_begin | (+ |j4_t1_begin | 3.0)))
(assert (>= |j4_t3_begin | 0.0))
(assert (>= |j4_t3_begin | (+ |j4_t2_begin | 5.0)))
(assert (>= |j4_t4_begin | 0.0))
(assert (>= |j4_t4_begin | (+ |j4_t3_begin | 4.0)))
(assert (>= |j4_t5_begin | 0.0))
(assert (<= (+ |j4_t5_begin | 1.0) c_t_4))
(assert (>= |j4_t5_begin | (+ |j4_t4_begin | 3.0)))
(assert (>= |j5_t0_begin | 0.0))
(assert (>= |j5_t1_begin | 0.0))
(assert (>= |j5_t1_begin | (+ |j5_t0_begin | 3.0)))
(assert (>= |j5_t2_begin | 0.0))
(assert (>= |j5_t2_begin | (+ |j5_t1_begin | 3.0)))
(assert (>= |j5_t3_begin | 0.0))
(assert (>= |j5_t3_begin | (+ |j5_t2_begin | 9.0)))
(assert (>= |j5_t4_begin | 0.0))
(assert (>= |j5_t4_begin | (+ |j5_t3_begin | 10.0)))
(assert (>= |j5_t5_begin | 0.0))
(assert (<= (+ |j5_t5_begin | 1.0) c_t_5))
(assert (>= |j5_t5_begin | (+ |j5_t4_begin | 4.0)))
(assert (or (>= |j1_t4_begin | (+ |j0_t1_begin | 3.0))
    (>= |j0_t1_begin | (+ |j1_t4_begin | 10.0))))
(assert (or (>= |j2_t3_begin | (+ |j0_t1_begin | 3.0))
    (>= |j0_t1_begin | (+ |j2_t3_begin | 9.0))))
(assert (or (>= |j3_t1_begin | (+ |j0_t1_begin | 3.0))
    (>= |j0_t1_begin | (+ |j3_t1_begin | 5.0))))
(assert (or (>= |j4_t4_begin | (+ |j0_t1_begin | 3.0))
    (>= |j0_t1_begin | (+ |j4_t4_begin | 3.0))))
(assert (or (>= |j5_t3_begin | (+ |j0_t1_begin | 3.0))
    (>= |j0_t1_begin | (+ |j5_t3_begin | 10.0))))
(assert (or (>= |j2_t3_begin | (+ |j1_t4_begin | 10.0))
    (>= |j1_t4_begin | (+ |j2_t3_begin | 9.0))))
(assert (or (>= |j3_t1_begin | (+ |j1_t4_begin | 10.0))
    (>= |j1_t4_begin | (+ |j3_t1_begin | 5.0))))
(assert (or (>= |j4_t4_begin | (+ |j1_t4_begin | 10.0))
    (>= |j1_t4_begin | (+ |j4_t4_begin | 3.0))))
(assert (or (>= |j5_t3_begin | (+ |j1_t4_begin | 10.0))
    (>= |j1_t4_begin | (+ |j5_t3_begin | 10.0))))
(assert (or (>= |j3_t1_begin | (+ |j2_t3_begin | 9.0))
    (>= |j2_t3_begin | (+ |j3_t1_begin | 5.0))))
(assert (or (>= |j4_t4_begin | (+ |j2_t3_begin | 9.0))
    (>= |j2_t3_begin | (+ |j4_t4_begin | 3.0))))
(assert (or (>= |j5_t3_begin | (+ |j2_t3_begin | 9.0))
    (>= |j2_t3_begin | (+ |j5_t3_begin | 10.0))))
(assert (or (>= |j4_t4_begin | (+ |j3_t1_begin | 5.0))
    (>= |j3_t1_begin | (+ |j4_t4_begin | 3.0))))
(assert (or (>= |j5_t3_begin | (+ |j3_t1_begin | 5.0))
    (>= |j3_t1_begin | (+ |j5_t3_begin | 10.0))))
(assert (or (>= |j5_t3_begin | (+ |j4_t4_begin | 3.0))
    (>= |j4_t4_begin | (+ |j5_t3_begin | 10.0))))
(assert (or (>= |j1_t0_begin | (+ |j0_t2_begin | 6.0))
    (>= |j0_t2_begin | (+ |j1_t0_begin | 8.0))))
(assert (or (>= |j2_t4_begin | (+ |j0_t2_begin | 6.0))
    (>= |j0_t2_begin | (+ |j2_t4_begin | 1.0))))
(assert (or (>= |j3_t0_begin | (+ |j0_t2_begin | 6.0))
    (>= |j0_t2_begin | (+ |j3_t0_begin | 5.0))))
(assert (or (>= |j4_t1_begin | (+ |j0_t2_begin | 6.0))
    (>= |j0_t2_begin | (+ |j4_t1_begin | 3.0))))
(assert (or (>= |j5_t0_begin | (+ |j0_t2_begin | 6.0))
    (>= |j0_t2_begin | (+ |j5_t0_begin | 3.0))))
(assert (or (>= |j2_t4_begin | (+ |j1_t0_begin | 8.0))
    (>= |j1_t0_begin | (+ |j2_t4_begin | 1.0))))
(assert (or (>= |j3_t0_begin | (+ |j1_t0_begin | 8.0))
    (>= |j1_t0_begin | (+ |j3_t0_begin | 5.0))))
(assert (or (>= |j4_t1_begin | (+ |j1_t0_begin | 8.0))
    (>= |j1_t0_begin | (+ |j4_t1_begin | 3.0))))
(assert (or (>= |j5_t0_begin | (+ |j1_t0_begin | 8.0))
    (>= |j1_t0_begin | (+ |j5_t0_begin | 3.0))))
(assert (or (>= |j3_t0_begin | (+ |j2_t4_begin | 1.0))
    (>= |j2_t4_begin | (+ |j3_t0_begin | 5.0))))
(assert (or (>= |j4_t1_begin | (+ |j2_t4_begin | 1.0))
    (>= |j2_t4_begin | (+ |j4_t1_begin | 3.0))))
(assert (or (>= |j5_t0_begin | (+ |j2_t4_begin | 1.0))
    (>= |j2_t4_begin | (+ |j5_t0_begin | 3.0))))
(assert (or (>= |j4_t1_begin | (+ |j3_t0_begin | 5.0))
    (>= |j3_t0_begin | (+ |j4_t1_begin | 3.0))))
(assert (or (>= |j5_t0_begin | (+ |j3_t0_begin | 5.0))
    (>= |j3_t0_begin | (+ |j5_t0_begin | 3.0))))
(assert (or (>= |j5_t0_begin | (+ |j4_t1_begin | 3.0))
    (>= |j4_t1_begin | (+ |j5_t0_begin | 3.0))))
(assert (or (>= |j1_t1_begin | (+ |j0_t0_begin | 1.0))
    (>= |j0_t0_begin | (+ |j1_t1_begin | 5.0))))
(assert (or (>= |j2_t0_begin | (+ |j0_t0_begin | 1.0))
    (>= |j0_t0_begin | (+ |j2_t0_begin | 5.0))))
(assert (or (>= |j3_t2_begin | (+ |j0_t0_begin | 1.0))
    (>= |j0_t0_begin | (+ |j3_t2_begin | 5.0))))
(assert (or (>= |j4_t0_begin | (+ |j0_t0_begin | 1.0))
    (>= |j0_t0_begin | (+ |j4_t0_begin | 9.0))))
(assert (or (>= |j5_t5_begin | (+ |j0_t0_begin | 1.0))
    (>= |j0_t0_begin | (+ |j5_t5_begin | 1.0))))
(assert (or (>= |j2_t0_begin | (+ |j1_t1_begin | 5.0))
    (>= |j1_t1_begin | (+ |j2_t0_begin | 5.0))))
(assert (or (>= |j3_t2_begin | (+ |j1_t1_begin | 5.0))
    (>= |j1_t1_begin | (+ |j3_t2_begin | 5.0))))
(assert (or (>= |j4_t0_begin | (+ |j1_t1_begin | 5.0))
    (>= |j1_t1_begin | (+ |j4_t0_begin | 9.0))))
(assert (or (>= |j5_t5_begin | (+ |j1_t1_begin | 5.0))
    (>= |j1_t1_begin | (+ |j5_t5_begin | 1.0))))
(assert (or (>= |j3_t2_begin | (+ |j2_t0_begin | 5.0))
    (>= |j2_t0_begin | (+ |j3_t2_begin | 5.0))))
(assert (or (>= |j4_t0_begin | (+ |j2_t0_begin | 5.0))
    (>= |j2_t0_begin | (+ |j4_t0_begin | 9.0))))
(assert (or (>= |j5_t5_begin | (+ |j2_t0_begin | 5.0))
    (>= |j2_t0_begin | (+ |j5_t5_begin | 1.0))))
(assert (or (>= |j4_t0_begin | (+ |j3_t2_begin | 5.0))
    (>= |j3_t2_begin | (+ |j4_t0_begin | 9.0))))
(assert (or (>= |j5_t5_begin | (+ |j3_t2_begin | 5.0))
    (>= |j3_t2_begin | (+ |j5_t5_begin | 1.0))))
(assert (or (>= |j5_t5_begin | (+ |j4_t0_begin | 9.0))
    (>= |j4_t0_begin | (+ |j5_t5_begin | 1.0))))
(assert (or (>= |j1_t5_begin | (+ |j0_t3_begin | 7.0))
    (>= |j0_t3_begin | (+ |j1_t5_begin | 4.0))))
(assert (or (>= |j2_t1_begin | (+ |j0_t3_begin | 7.0))
    (>= |j0_t3_begin | (+ |j2_t1_begin | 4.0))))
(assert (or (>= |j3_t3_begin | (+ |j0_t3_begin | 7.0))
    (>= |j0_t3_begin | (+ |j3_t3_begin | 3.0))))
(assert (or (>= |j4_t5_begin | (+ |j0_t3_begin | 7.0))
    (>= |j0_t3_begin | (+ |j4_t5_begin | 1.0))))
(assert (or (>= |j5_t1_begin | (+ |j0_t3_begin | 7.0))
    (>= |j0_t3_begin | (+ |j5_t1_begin | 3.0))))
(assert (or (>= |j2_t1_begin | (+ |j1_t5_begin | 4.0))
    (>= |j1_t5_begin | (+ |j2_t1_begin | 4.0))))
(assert (or (>= |j3_t3_begin | (+ |j1_t5_begin | 4.0))
    (>= |j1_t5_begin | (+ |j3_t3_begin | 3.0))))
(assert (or (>= |j4_t5_begin | (+ |j1_t5_begin | 4.0))
    (>= |j1_t5_begin | (+ |j4_t5_begin | 1.0))))
(assert (or (>= |j5_t1_begin | (+ |j1_t5_begin | 4.0))
    (>= |j1_t5_begin | (+ |j5_t1_begin | 3.0))))
(assert (or (>= |j3_t3_begin | (+ |j2_t1_begin | 4.0))
    (>= |j2_t1_begin | (+ |j3_t3_begin | 3.0))))
(assert (or (>= |j4_t5_begin | (+ |j2_t1_begin | 4.0))
    (>= |j2_t1_begin | (+ |j4_t5_begin | 1.0))))
(assert (or (>= |j5_t1_begin | (+ |j2_t1_begin | 4.0))
    (>= |j2_t1_begin | (+ |j5_t1_begin | 3.0))))
(assert (or (>= |j4_t5_begin | (+ |j3_t3_begin | 3.0))
    (>= |j3_t3_begin | (+ |j4_t5_begin | 1.0))))
(assert (or (>= |j5_t1_begin | (+ |j3_t3_begin | 3.0))
    (>= |j3_t3_begin | (+ |j5_t1_begin | 3.0))))
(assert (or (>= |j5_t1_begin | (+ |j4_t5_begin | 1.0))
    (>= |j4_t5_begin | (+ |j5_t1_begin | 3.0))))
(assert (or (>= |j1_t2_begin | (+ |j0_t5_begin | 6.0))
    (>= |j0_t5_begin | (+ |j1_t2_begin | 10.0))))
(assert (or (>= |j2_t5_begin | (+ |j0_t5_begin | 6.0))
    (>= |j0_t5_begin | (+ |j2_t5_begin | 7.0))))
(assert (or (>= |j3_t4_begin | (+ |j0_t5_begin | 6.0))
    (>= |j0_t5_begin | (+ |j3_t4_begin | 8.0))))
(assert (or (>= |j4_t2_begin | (+ |j0_t5_begin | 6.0))
    (>= |j0_t5_begin | (+ |j4_t2_begin | 5.0))))
(assert (or (>= |j5_t4_begin | (+ |j0_t5_begin | 6.0))
    (>= |j0_t5_begin | (+ |j5_t4_begin | 4.0))))
(assert (or (>= |j2_t5_begin | (+ |j1_t2_begin | 10.0))
    (>= |j1_t2_begin | (+ |j2_t5_begin | 7.0))))
(assert (or (>= |j3_t4_begin | (+ |j1_t2_begin | 10.0))
    (>= |j1_t2_begin | (+ |j3_t4_begin | 8.0))))
(assert (or (>= |j4_t2_begin | (+ |j1_t2_begin | 10.0))
    (>= |j1_t2_begin | (+ |j4_t2_begin | 5.0))))
(assert (or (>= |j5_t4_begin | (+ |j1_t2_begin | 10.0))
    (>= |j1_t2_begin | (+ |j5_t4_begin | 4.0))))
(assert (or (>= |j3_t4_begin | (+ |j2_t5_begin | 7.0))
    (>= |j2_t5_begin | (+ |j3_t4_begin | 8.0))))
(assert (or (>= |j4_t2_begin | (+ |j2_t5_begin | 7.0))
    (>= |j2_t5_begin | (+ |j4_t2_begin | 5.0))))
(assert (or (>= |j5_t4_begin | (+ |j2_t5_begin | 7.0))
    (>= |j2_t5_begin | (+ |j5_t4_begin | 4.0))))
(assert (or (>= |j4_t2_begin | (+ |j3_t4_begin | 8.0))
    (>= |j3_t4_begin | (+ |j4_t2_begin | 5.0))))
(assert (or (>= |j5_t4_begin | (+ |j3_t4_begin | 8.0))
    (>= |j3_t4_begin | (+ |j5_t4_begin | 4.0))))
(assert (or (>= |j5_t4_begin | (+ |j4_t2_begin | 5.0))
    (>= |j4_t2_begin | (+ |j5_t4_begin | 4.0))))
(assert (or (>= |j1_t3_begin | (+ |j0_t4_begin | 3.0))
    (>= |j0_t4_begin | (+ |j1_t3_begin | 10.0))))
(assert (or (>= |j2_t2_begin | (+ |j0_t4_begin | 3.0))
    (>= |j0_t4_begin | (+ |j2_t2_begin | 8.0))))
(assert (or (>= |j3_t5_begin | (+ |j0_t4_begin | 3.0))
    (>= |j0_t4_begin | (+ |j3_t5_begin | 9.0))))
(assert (or (>= |j4_t3_begin | (+ |j0_t4_begin | 3.0))
    (>= |j0_t4_begin | (+ |j4_t3_begin | 4.0))))
(assert (or (>= |j5_t2_begin | (+ |j0_t4_begin | 3.0))
    (>= |j0_t4_begin | (+ |j5_t2_begin | 9.0))))
(assert (or (>= |j2_t2_begin | (+ |j1_t3_begin | 10.0))
    (>= |j1_t3_begin | (+ |j2_t2_begin | 8.0))))
(assert (or (>= |j3_t5_begin | (+ |j1_t3_begin | 10.0))
    (>= |j1_t3_begin | (+ |j3_t5_begin | 9.0))))
(assert (or (>= |j4_t3_begin | (+ |j1_t3_begin | 10.0))
    (>= |j1_t3_begin | (+ |j4_t3_begin | 4.0))))
(assert (or (>= |j5_t2_begin | (+ |j1_t3_begin | 10.0))
    (>= |j1_t3_begin | (+ |j5_t2_begin | 9.0))))
(assert (or (>= |j3_t5_begin | (+ |j2_t2_begin | 8.0))
    (>= |j2_t2_begin | (+ |j3_t5_begin | 9.0))))
(assert (or (>= |j4_t3_begin | (+ |j2_t2_begin | 8.0))
    (>= |j2_t2_begin | (+ |j4_t3_begin | 4.0))))
(assert (or (>= |j5_t2_begin | (+ |j2_t2_begin | 8.0))
    (>= |j2_t2_begin | (+ |j5_t2_begin | 9.0))))
(assert (or (>= |j4_t3_begin | (+ |j3_t5_begin | 9.0))
    (>= |j3_t5_begin | (+ |j4_t3_begin | 4.0))))
(assert (or (>= |j5_t2_begin | (+ |j3_t5_begin | 9.0))
    (>= |j3_t5_begin | (+ |j5_t2_begin | 9.0))))
(assert (or (>= |j5_t2_begin | (+ |j4_t3_begin | 4.0))
    (>= |j4_t3_begin | (+ |j5_t2_begin | 9.0))))
(assert (or (>= |j0_t1_begin | (+ |j0_t0_begin | 1.0))
    (>= |j0_t0_begin | (+ |j0_t1_begin | 3.0))))
(assert (or (>= |j0_t2_begin | (+ |j0_t0_begin | 1.0))
    (>= |j0_t0_begin | (+ |j0_t2_begin | 6.0))))
(assert (or (>= |j0_t3_begin | (+ |j0_t0_begin | 1.0))
    (>= |j0_t0_begin | (+ |j0_t3_begin | 7.0))))
(assert (or (>= |j0_t4_begin | (+ |j0_t0_begin | 1.0))
    (>= |j0_t0_begin | (+ |j0_t4_begin | 3.0))))
(assert (or (>= |j0_t5_begin | (+ |j0_t0_begin | 1.0))
    (>= |j0_t0_begin | (+ |j0_t5_begin | 6.0))))
(assert (or (>= |j0_t2_begin | (+ |j0_t1_begin | 3.0))
    (>= |j0_t1_begin | (+ |j0_t2_begin | 6.0))))
(assert (or (>= |j0_t3_begin | (+ |j0_t1_begin | 3.0))
    (>= |j0_t1_begin | (+ |j0_t3_begin | 7.0))))
(assert (or (>= |j0_t4_begin | (+ |j0_t1_begin | 3.0))
    (>= |j0_t1_begin | (+ |j0_t4_begin | 3.0))))
(assert (or (>= |j0_t5_begin | (+ |j0_t1_begin | 3.0))
    (>= |j0_t1_begin | (+ |j0_t5_begin | 6.0))))
(assert (or (>= |j0_t3_begin | (+ |j0_t2_begin | 6.0))
    (>= |j0_t2_begin | (+ |j0_t3_begin | 7.0))))
(assert (or (>= |j0_t4_begin | (+ |j0_t2_begin | 6.0))
    (>= |j0_t2_begin | (+ |j0_t4_begin | 3.0))))
(assert (or (>= |j0_t5_begin | (+ |j0_t2_begin | 6.0))
    (>= |j0_t2_begin | (+ |j0_t5_begin | 6.0))))
(assert (or (>= |j0_t4_begin | (+ |j0_t3_begin | 7.0))
    (>= |j0_t3_begin | (+ |j0_t4_begin | 3.0))))
(assert (or (>= |j0_t5_begin | (+ |j0_t3_begin | 7.0))
    (>= |j0_t3_begin | (+ |j0_t5_begin | 6.0))))
(assert (or (>= |j0_t5_begin | (+ |j0_t4_begin | 3.0))
    (>= |j0_t4_begin | (+ |j0_t5_begin | 6.0))))
(assert (or (>= |j1_t1_begin | (+ |j1_t0_begin | 8.0))
    (>= |j1_t0_begin | (+ |j1_t1_begin | 5.0))))
(assert (or (>= |j1_t2_begin | (+ |j1_t0_begin | 8.0))
    (>= |j1_t0_begin | (+ |j1_t2_begin | 10.0))))
(assert (or (>= |j1_t3_begin | (+ |j1_t0_begin | 8.0))
    (>= |j1_t0_begin | (+ |j1_t3_begin | 10.0))))
(assert (or (>= |j1_t4_begin | (+ |j1_t0_begin | 8.0))
    (>= |j1_t0_begin | (+ |j1_t4_begin | 10.0))))
(assert (or (>= |j1_t5_begin | (+ |j1_t0_begin | 8.0))
    (>= |j1_t0_begin | (+ |j1_t5_begin | 4.0))))
(assert (or (>= |j1_t2_begin | (+ |j1_t1_begin | 5.0))
    (>= |j1_t1_begin | (+ |j1_t2_begin | 10.0))))
(assert (or (>= |j1_t3_begin | (+ |j1_t1_begin | 5.0))
    (>= |j1_t1_begin | (+ |j1_t3_begin | 10.0))))
(assert (or (>= |j1_t4_begin | (+ |j1_t1_begin | 5.0))
    (>= |j1_t1_begin | (+ |j1_t4_begin | 10.0))))
(assert (or (>= |j1_t5_begin | (+ |j1_t1_begin | 5.0))
    (>= |j1_t1_begin | (+ |j1_t5_begin | 4.0))))
(assert (or (>= |j1_t3_begin | (+ |j1_t2_begin | 10.0))
    (>= |j1_t2_begin | (+ |j1_t3_begin | 10.0))))
(assert (or (>= |j1_t4_begin | (+ |j1_t2_begin | 10.0))
    (>= |j1_t2_begin | (+ |j1_t4_begin | 10.0))))
(assert (or (>= |j1_t5_begin | (+ |j1_t2_begin | 10.0))
    (>= |j1_t2_begin | (+ |j1_t5_begin | 4.0))))
(assert (or (>= |j1_t4_begin | (+ |j1_t3_begin | 10.0))
    (>= |j1_t3_begin | (+ |j1_t4_begin | 10.0))))
(assert (or (>= |j1_t5_begin | (+ |j1_t3_begin | 10.0))
    (>= |j1_t3_begin | (+ |j1_t5_begin | 4.0))))
(assert (or (>= |j1_t5_begin | (+ |j1_t4_begin | 10.0))
    (>= |j1_t4_begin | (+ |j1_t5_begin | 4.0))))
(assert (or (>= |j2_t1_begin | (+ |j2_t0_begin | 5.0))
    (>= |j2_t0_begin | (+ |j2_t1_begin | 4.0))))
(assert (or (>= |j2_t2_begin | (+ |j2_t0_begin | 5.0))
    (>= |j2_t0_begin | (+ |j2_t2_begin | 8.0))))
(assert (or (>= |j2_t3_begin | (+ |j2_t0_begin | 5.0))
    (>= |j2_t0_begin | (+ |j2_t3_begin | 9.0))))
(assert (or (>= |j2_t4_begin | (+ |j2_t0_begin | 5.0))
    (>= |j2_t0_begin | (+ |j2_t4_begin | 1.0))))
(assert (or (>= |j2_t5_begin | (+ |j2_t0_begin | 5.0))
    (>= |j2_t0_begin | (+ |j2_t5_begin | 7.0))))
(assert (or (>= |j2_t2_begin | (+ |j2_t1_begin | 4.0))
    (>= |j2_t1_begin | (+ |j2_t2_begin | 8.0))))
(assert (or (>= |j2_t3_begin | (+ |j2_t1_begin | 4.0))
    (>= |j2_t1_begin | (+ |j2_t3_begin | 9.0))))
(assert (or (>= |j2_t4_begin | (+ |j2_t1_begin | 4.0))
    (>= |j2_t1_begin | (+ |j2_t4_begin | 1.0))))
(assert (or (>= |j2_t5_begin | (+ |j2_t1_begin | 4.0))
    (>= |j2_t1_begin | (+ |j2_t5_begin | 7.0))))
(assert (or (>= |j2_t3_begin | (+ |j2_t2_begin | 8.0))
    (>= |j2_t2_begin | (+ |j2_t3_begin | 9.0))))
(assert (or (>= |j2_t4_begin | (+ |j2_t2_begin | 8.0))
    (>= |j2_t2_begin | (+ |j2_t4_begin | 1.0))))
(assert (or (>= |j2_t5_begin | (+ |j2_t2_begin | 8.0))
    (>= |j2_t2_begin | (+ |j2_t5_begin | 7.0))))
(assert (or (>= |j2_t4_begin | (+ |j2_t3_begin | 9.0))
    (>= |j2_t3_begin | (+ |j2_t4_begin | 1.0))))
(assert (or (>= |j2_t5_begin | (+ |j2_t3_begin | 9.0))
    (>= |j2_t3_begin | (+ |j2_t5_begin | 7.0))))
(assert (or (>= |j2_t5_begin | (+ |j2_t4_begin | 1.0))
    (>= |j2_t4_begin | (+ |j2_t5_begin | 7.0))))
(assert (or (>= |j3_t1_begin | (+ |j3_t0_begin | 5.0))
    (>= |j3_t0_begin | (+ |j3_t1_begin | 5.0))))
(assert (or (>= |j3_t2_begin | (+ |j3_t0_begin | 5.0))
    (>= |j3_t0_begin | (+ |j3_t2_begin | 5.0))))
(assert (or (>= |j3_t3_begin | (+ |j3_t0_begin | 5.0))
    (>= |j3_t0_begin | (+ |j3_t3_begin | 3.0))))
(assert (or (>= |j3_t4_begin | (+ |j3_t0_begin | 5.0))
    (>= |j3_t0_begin | (+ |j3_t4_begin | 8.0))))
(assert (or (>= |j3_t5_begin | (+ |j3_t0_begin | 5.0))
    (>= |j3_t0_begin | (+ |j3_t5_begin | 9.0))))
(assert (or (>= |j3_t2_begin | (+ |j3_t1_begin | 5.0))
    (>= |j3_t1_begin | (+ |j3_t2_begin | 5.0))))
(assert (or (>= |j3_t3_begin | (+ |j3_t1_begin | 5.0))
    (>= |j3_t1_begin | (+ |j3_t3_begin | 3.0))))
(assert (or (>= |j3_t4_begin | (+ |j3_t1_begin | 5.0))
    (>= |j3_t1_begin | (+ |j3_t4_begin | 8.0))))
(assert (or (>= |j3_t5_begin | (+ |j3_t1_begin | 5.0))
    (>= |j3_t1_begin | (+ |j3_t5_begin | 9.0))))
(assert (or (>= |j3_t3_begin | (+ |j3_t2_begin | 5.0))
    (>= |j3_t2_begin | (+ |j3_t3_begin | 3.0))))
(assert (or (>= |j3_t4_begin | (+ |j3_t2_begin | 5.0))
    (>= |j3_t2_begin | (+ |j3_t4_begin | 8.0))))
(assert (or (>= |j3_t5_begin | (+ |j3_t2_begin | 5.0))
    (>= |j3_t2_begin | (+ |j3_t5_begin | 9.0))))
(assert (or (>= |j3_t4_begin | (+ |j3_t3_begin | 3.0))
    (>= |j3_t3_begin | (+ |j3_t4_begin | 8.0))))
(assert (or (>= |j3_t5_begin | (+ |j3_t3_begin | 3.0))
    (>= |j3_t3_begin | (+ |j3_t5_begin | 9.0))))
(assert (or (>= |j3_t5_begin | (+ |j3_t4_begin | 8.0))
    (>= |j3_t4_begin | (+ |j3_t5_begin | 9.0))))
(assert (or (>= |j4_t1_begin | (+ |j4_t0_begin | 9.0))
    (>= |j4_t0_begin | (+ |j4_t1_begin | 3.0))))
(assert (or (>= |j4_t2_begin | (+ |j4_t0_begin | 9.0))
    (>= |j4_t0_begin | (+ |j4_t2_begin | 5.0))))
(assert (or (>= |j4_t3_begin | (+ |j4_t0_begin | 9.0))
    (>= |j4_t0_begin | (+ |j4_t3_begin | 4.0))))
(assert (or (>= |j4_t4_begin | (+ |j4_t0_begin | 9.0))
    (>= |j4_t0_begin | (+ |j4_t4_begin | 3.0))))
(assert (or (>= |j4_t5_begin | (+ |j4_t0_begin | 9.0))
    (>= |j4_t0_begin | (+ |j4_t5_begin | 1.0))))
(assert (or (>= |j4_t2_begin | (+ |j4_t1_begin | 3.0))
    (>= |j4_t1_begin | (+ |j4_t2_begin | 5.0))))
(assert (or (>= |j4_t3_begin | (+ |j4_t1_begin | 3.0))
    (>= |j4_t1_begin | (+ |j4_t3_begin | 4.0))))
(assert (or (>= |j4_t4_begin | (+ |j4_t1_begin | 3.0))
    (>= |j4_t1_begin | (+ |j4_t4_begin | 3.0))))
(assert (or (>= |j4_t5_begin | (+ |j4_t1_begin | 3.0))
    (>= |j4_t1_begin | (+ |j4_t5_begin | 1.0))))
(assert (or (>= |j4_t3_begin | (+ |j4_t2_begin | 5.0))
    (>= |j4_t2_begin | (+ |j4_t3_begin | 4.0))))
(assert (or (>= |j4_t4_begin | (+ |j4_t2_begin | 5.0))
    (>= |j4_t2_begin | (+ |j4_t4_begin | 3.0))))
(assert (or (>= |j4_t5_begin | (+ |j4_t2_begin | 5.0))
    (>= |j4_t2_begin | (+ |j4_t5_begin | 1.0))))
(assert (or (>= |j4_t4_begin | (+ |j4_t3_begin | 4.0))
    (>= |j4_t3_begin | (+ |j4_t4_begin | 3.0))))
(assert (or (>= |j4_t5_begin | (+ |j4_t3_begin | 4.0))
    (>= |j4_t3_begin | (+ |j4_t5_begin | 1.0))))
(assert (or (>= |j4_t5_begin | (+ |j4_t4_begin | 3.0))
    (>= |j4_t4_begin | (+ |j4_t5_begin | 1.0))))
(assert (or (>= |j5_t1_begin | (+ |j5_t0_begin | 3.0))
    (>= |j5_t0_begin | (+ |j5_t1_begin | 3.0))))
(assert (or (>= |j5_t2_begin | (+ |j5_t0_begin | 3.0))
    (>= |j5_t0_begin | (+ |j5_t2_begin | 9.0))))
(assert (or (>= |j5_t3_begin | (+ |j5_t0_begin | 3.0))
    (>= |j5_t0_begin | (+ |j5_t3_begin | 10.0))))
(assert (or (>= |j5_t4_begin | (+ |j5_t0_begin | 3.0))
    (>= |j5_t0_begin | (+ |j5_t4_begin | 4.0))))
(assert (or (>= |j5_t5_begin | (+ |j5_t0_begin | 3.0))
    (>= |j5_t0_begin | (+ |j5_t5_begin | 1.0))))
(assert (or (>= |j5_t2_begin | (+ |j5_t1_begin | 3.0))
    (>= |j5_t1_begin | (+ |j5_t2_begin | 9.0))))
(assert (or (>= |j5_t3_begin | (+ |j5_t1_begin | 3.0))
    (>= |j5_t1_begin | (+ |j5_t3_begin | 10.0))))
(assert (or (>= |j5_t4_begin | (+ |j5_t1_begin | 3.0))
    (>= |j5_t1_begin | (+ |j5_t4_begin | 4.0))))
(assert (or (>= |j5_t5_begin | (+ |j5_t1_begin | 3.0))
    (>= |j5_t1_begin | (+ |j5_t5_begin | 1.0))))
(assert (or (>= |j5_t3_begin | (+ |j5_t2_begin | 9.0))
    (>= |j5_t2_begin | (+ |j5_t3_begin | 10.0))))
(assert (or (>= |j5_t4_begin | (+ |j5_t2_begin | 9.0))
    (>= |j5_t2_begin | (+ |j5_t4_begin | 4.0))))
(assert (or (>= |j5_t5_begin | (+ |j5_t2_begin | 9.0))
    (>= |j5_t2_begin | (+ |j5_t5_begin | 1.0))))
(assert (or (>= |j5_t4_begin | (+ |j5_t3_begin | 10.0))
    (>= |j5_t3_begin | (+ |j5_t4_begin | 4.0))))
(assert (or (>= |j5_t5_begin | (+ |j5_t3_begin | 10.0))
    (>= |j5_t3_begin | (+ |j5_t5_begin | 1.0))))
(assert (or (>= |j5_t5_begin | (+ |j5_t4_begin | 4.0))
    (>= |j5_t4_begin | (+ |j5_t5_begin | 1.0))))
(assert (>= objectie_function (+ 0.0 c_t_0 c_t_1 c_t_2 c_t_3 c_t_4 c_t_5)))

(check-sat)